NAME : berlin52_reduced_10
TYPE : TSP
DIMENSION : 10
EDGE_WEIGHT_TYPE : EUC_2D
NODE_COORD_SECTION
33.0 1150.0 1160.0
11.0 1605.0 620.0
51.0 1340.0 725.0
52.0 1740.0 245.0
12.0 1220.0 580.0
43.0 875.0 920.0
10.0 650.0 1130.0
9.0 580.0 1175.0
13.0 1465.0 200.0
28.0 1250.0 400.0
EOF
